80 8
78 61
35 15
18 55
40 5
76 74
5 70
16 87
46 41
86 70
71 55
94 60
68 71
60 61
24 42
23 61
81 90
89 12
3 58
46 1
14 60
79 46
45 39
73 19
4 16
78 77
82 87
90 78
10 74
80 71
12 89
17 99
45 86
58 85
53 65
63 72
22 96
65 41
28 94
28 50
43 3
8 96
89 76
52 26
63 78
93 29
1 73
35 73
27 9
71 70
57 86
78 43
64 40
64 56
39 86
42 76
44 99
65 75
52 5
81 52
8 92
34 37
98 2
97 16
9 25
50 6
99 72
83 81
92 32
71 80
23 99
27 64
53 73
91 58
10 42
41 83
93 66
77 38
15 60
85 90
44 19
617 693
655 761
599 715
569 675
585 675
487 549
680 783
550 637
